NAME : A-n69-k9
COMMENT : (Augerat et al, Min no of trucks: 9, Best value: 1168)
TYPE : CVRP
DIMENSION : 69
EDGE_WEIGHT_TYPE : EUC_2D
CAPACITY : 100
NODE_COORD_SECTION
1 59 44
2 9 23
3 84 68
4 36 93
5 87 9
6 34 16
7 40 98
8 72 43
9 0 60
10 64 90
11 11 8
12 46 7
13 33 54
14 23 84
15 67 18
16 34 93
17 19 25
18 14 9
19 70 64
20 58 50
21 5 78
22 95 39
23 38 54
24 50 73
25 48 46
26 64 4
27 39 28
28 79 30
29 61 36
30 28 50
31 51 91
DEMAND_SECTION
1 0
2 2
3 1
4 6
5 9
6 16
7 5
8 3
9 9
10 12
11 1
12 1
13 18
14 10
15 5
16 5
17 9
18 16
19 12
20 6
21 6
22 20
23 23
24 39
25 17
26 8
27 2
28 13
29 17
30 3
31 2
DEPOT_SECTION
1
-1
EOF
